c   #vars: 32   #clauses: 149   #literals: 450
c 
p cnf 32 149
-1 -2 0
-3 -4 0
-5 -6 0
10 11 25 26 0
-17 -18 19 20 0
1 2 19 20 0
9 12 13 -19 0
9 -19 23 24 0
8 14 -16 -21 0
-10 -11 0
5 6 -8 14 0
-12 -13 0
17 18 25 26 0
-15 -16 0
-17 -18 0
-19 -20 0
-19 -20 -21 -22 31 32 0
-9 -10 -11 17 18 -20 0
-5 8 14 -16 0
-21 -22 0
-23 -24 0
-25 -26 0
-27 -28 0
10 11 27 28 0
-29 -30 0
-31 -32 0
7 10 11 -25 0
-8 14 21 22 0
1 2 12 13 0
-1 -12 0
-2 -13 0
9 17 18 -19 0
-1 -19 0
-2 -20 0
-1 -23 0
-2 -24 0
-1 -25 0
-2 -26 0
-3 -10 0
-4 -11 0
-3 -15 0
-4 -16 0
5 6 31 32 0
-3 -17 0
-4 -18 0
5 6 29 30 0
-3 -25 0
-4 -26 0
-3 -29 0
-4 -30 0
3 4 31 32 0
-3 -31 0
-4 -32 0
-5 14 21 22 0
-6 -14 0
-5 -21 0
-6 -22 0
9 -12 19 20 0
-5 -29 0
-6 -30 0
3 4 29 30 0
-5 -31 0
-6 -32 0
1 2 25 26 0
-19 -20 -21 -22 0
1 2 23 24 0
5 6 21 22 0
9 -10 -11 17 18 -19 0
8 -14 31 32 0
8 15 16 -32 0
9 12 13 -17 0
-7 -11 0
-7 -26 0
7 25 26 -27 0
-7 -28 0
8 14 -21 -32 0
7 -25 27 28 0
9 -17 23 24 0
9 17 18 -23 0
9 -12 23 24 0
17 18 27 28 0
-1 -2 5 6 0
7 10 11 -27 0
-19 -20 -21 -22 -31 0
10 11 21 22 0
-8 -15 0
9 -10 -11 -17 19 20 0
3 4 17 18 0
-8 -31 0
-9 -10 -11 -18 19 20 0
9 19 20 -23 0
-5 8 14 -32 0
9 -12 17 18 0
8 -16 31 32 0
19 20 21 22 0
7 -10 27 28 0
15 16 27 28 0
-9 -13 0
-9 -18 0
-9 -20 0
3 4 10 11 0
9 12 13 -23 0
1 2 -5 -6 0
15 16 29 30 0
-9 -24 0
15 16 23 24 0
-10 -21 0
-11 -22 0
-10 -25 0
-11 -26 0
-10 -27 0
-11 -28 0
3 4 15 16 0
9 -17 19 20 0
-12 -23 0
-13 -24 0
-12 -25 0
-13 -26 0
-12 -29 0
-13 -30 0
-19 -20 -21 -31 -32 0
-14 -22 0
7 -10 25 26 0
-15 -23 0
-16 -24 0
-19 -20 -31 -32 0
-15 -27 0
-16 -28 0
12 13 25 26 0
-15 -29 0
-16 -30 0
19 20 23 24 0
-17 -25 0
-18 -26 0
3 4 25 26 0
-17 -27 0
-18 -28 0
5 6 14 -21 0
-17 -29 0
-18 -30 0
12 13 23 24 0
-19 -21 0
-20 -22 0
12 13 29 30 0
-19 -23 0
-20 -24 0
8 -14 15 16 0
17 18 -19 -20 0
17 18 29 30 0
